NAME        unbound
OBJSENSE
 MIN
ROWS
 N  OBJECTIV          
 N  cost2_1           
 G  cons_1            
COLUMNS
    MARK0000  'MARKER'                 'INTORG'
    MARK0001  'MARKER'                 'INTEND'
    x         OBJECTIV             1
    x         cons_1               2
    y         cons_1               1
    y         cost2_1              1
RHS
BOUNDS
 LO BOUND     x                    0
 PL BOUND     x       
 MI BOUND     y       
 PL BOUND     y       
ENDATA
